c uprop, v00.0, 
c reading from data/prog84.c.cnf
c done reading: 0.003171
p cnf 51 139
-31 -34 0
-30 -31 0
30 31 34 0
-28 30 34 0
-28 -30 -34 0
28 30 -34 0
28 -30 34 0
-27 31 0
27 -31 0
-26 -31 0
26 31 0
-25 27 0
25 -27 0
-23 -27 0
23 27 0
-22 25 0
22 -25 0
-25 -32 0
25 32 0
22 -29 0
-22 29 0
-20 -22 0
20 22 0
-19 29 0
19 -29 0
-29 -36 0
29 36 0
19 -37 0
-19 37 0
-19 -38 0
19 38 0
-34 -39 0
-30 -39 0
30 34 39 0
30 34 -40 0
-30 -34 -40 0
30 -34 40 0
-30 34 40 0
39 -41 0
-39 41 0
-39 -42 0
39 42 0
41 -43 0
-41 43 0
-41 -45 0
41 45 0
43 -46 0
-43 46 0
-43 -47 0
43 47 0
46 -48 0
-46 48 0
-46 -49 0
46 49 0
48 -50 0
-48 50 0
-48 -51 0
48 51 0
-35 50 0
35 -50 0
-33 -50 0
33 50 0
-17 -18 0
17 18 0
-14 -16 0
14 16 0
-12 -13 0
12 13 0
-11 -15 0
11 15 0
-9 -10 0
9 10 0
8 -18 0
-8 18 0
-7 -8 18 0
-7 -8 0
7 8 -18 0
7 8 0
6 -16 0
6 -8 -16 0
6 -8 0
-6 8 16 0
-5 -6 16 0
-5 -6 8 0
5 6 -16 0
5 6 0
5 6 -8 0
5 -8 -16 0
4 -13 -18 0
4 -6 -13 0
4 -6 -18 0
-4 13 18 0
-4 6 13 0
-4 6 18 0
4 -13 0
4 -18 0
4 -6 0
-6 -13 -18 0
3 -11 -16 0
3 -4 -11 0
3 -4 -16 0
-3 11 16 0
-3 4 11 0
-3 4 16 0
3 -11 0
3 -16 0
3 -4 0
-4 -11 -16 0
2 -9 -13 0
2 -3 -9 0
2 -3 -13 0
-2 9 13 0
-2 3 9 0
-2 3 13 0
2 -9 0
2 -13 0
2 -3 0
-3 -9 -13 0
-1 11 0
-1 2 0
1 -2 -11 0
2 -11 0
-2 11 0
-1 -9 0
1 -9 0
-1 9 0
-7 -24 0
7 24 0
-5 -21 0
5 21 0
34 -44 0
7 -44 0
-7 -34 44 0
7 -34 0
-7 34 0
-5 -30 0
-30 -44 0
-5 -44 0
5 30 44 0
